n_tasks = 30;
duration = [ 6, 6, 9, 6, 5, 1, 9, 7, 3, 9, 3, 3, 3, 7, 3, 6, 1, 4, 9, 8, 7, 3, 1, 1, 7, 3, 2, 8, 10, 7 ];


n_res = 4;
l = [ 15, 17, 17, 14 ];

req = [| 1, 1, 8, 1, 3, 10, 5, 5, 10, 2, 10, 5, 2, 5, 6, 8, 9, 2, 9, 5, 8, 3, 5, 2, 2, 8, 9, 6, 2, 10
      | 8, 1, 8, 7, 8, 5, 1, 1, 5, 7, 8, 8, 3, 5, 2, 7, 9, 8, 2, 9, 7, 8, 10, 3, 10, 2, 10, 4, 8, 4
      | 10, 5, 8, 7, 5, 2, 9, 9, 1, 7, 4, 7, 9, 6, 1, 4, 6, 6, 6, 10, 1, 4, 6, 6, 7, 3, 2, 1, 5, 2
      | 9, 4, 3, 7, 2, 10, 9, 4, 2, 6, 3, 1, 9, 7, 3, 2, 10, 6, 5, 6, 3, 10, 1, 7, 6, 9, 1, 8, 2, 7 |];
      
p = 52;     
pre =  [|1, 4
        |1, 7
        |1, 8
        |2, 5
        |2, 10
        |2, 18
        |3, 17
        |3, 23
        |3, 30
        |4, 6
        |4, 17
        |4, 30
        |5, 9
        |6, 18
        |7, 12
        |7, 19
        |7, 28
        |8, 12
        |8, 13
        |8, 15
        |9, 11
        |9, 22
        |10, 17
        |10, 23
        |10, 24
        |11, 12
        |11, 13
        |11, 14
        |12, 16
        |12, 24
        |13, 29
        |14, 20
        |14, 25
        |14, 26
        |15, 18
        |15, 25
        |16, 21
        |16, 23
        |16, 26
        |17, 28
        |18, 21
        |19, 21
        |19, 22
        |20, 24
        |21, 27
        |22, 26
        |23, 27 
        |24, 27
        |25, 28
        |25, 29
        |26, 30
        |27, 29
        |];